1600 3200
1 2 3
1 41 5
2 3 4
2 42 4
3 4 2
3 43 5
4 5 4
4 44 4
5 6 4
5 45 2
6 7 4
6 46 4
7 8 2
7 47 3
8 9 2
8 48 5
9 10 1
9 49 2
10 11 4
10 50 2
11 12 3
11 51 2
12 13 1
12 52 3
13 14 3
13 53 3
14 15 5
14 54 1
15 16 4
15 55 5
16 17 4
16 56 3
17 18 4
17 57 1
18 19 5
18 58 1
19 20 2
19 59 3
20 21 2
20 60 1
21 22 5
21 61 3
22 23 3
22 62 1
23 24 4
23 63 3
24 25 5
24 64 5
25 26 4
25 65 2
26 27 3
26 66 1
27 28 1
27 67 2
28 29 3
28 68 2
29 30 1
29 69 3
30 31 3
30 70 4
31 32 5
31 71 4
32 33 5
32 72 4
33 34 4
33 73 4
34 35 1
34 74 5
35 36 4
35 75 4
36 37 4
36 76 4
37 38 1
37 77 4
38 39 4
38 78 2
39 40 5
39 79 3
40 80 3
41 42 5
41 81 5
42 43 2
42 82 5
43 44 3
43 83 4
44 45 3
44 84 5
45 46 2
45 85 5
46 47 1
46 86 3
47 48 5
47 87 2
48 49 3
48 88 4
49 50 4
49 89 1
50 51 2
50 90 4
51 52 4
51 91 3
52 53 1
52 92 3
53 54 4
53 93 5
54 55 1
54 94 4
55 56 4
55 95 5
56 57 4
56 96 3
57 58 4
57 97 4
58 59 2
58 98 1
59 60 2
59 99 2
60 61 4
60 100 4
61 62 2
61 101 2
62 63 5
62 102 1
63 64 1
63 103 4
64 65 5
64 104 3
65 66 2
65 105 4
66 67 5
66 106 5
67 68 4
67 107 1
68 69 4
68 108 5
69 70 2
69 109 2
70 71 4
70 110 2
71 72 5
71 111 3
72 73 2
72 112 1
73 74 2
73 113 1
74 75 5
74 114 2
75 76 3
75 115 2
76 77 2
76 116 4
77 78 1
77 117 3
78 79 2
78 118 1
79 80 4
79 119 1
80 120 2
81 82 3
81 121 5
82 83 4
82 122 1
83 84 2
83 123 2
84 85 1
84 124 5
85 86 1
85 125 5
86 87 3
86 126 3
87 88 1
87 127 1
88 89 1
88 128 4
89 90 3
89 129 2
90 91 5
90 130 5
91 92 1
91 131 3
92 93 3
92 132 4
93 94 5
93 133 3
94 95 3
94 134 3
95 96 1
95 135 1
96 97 4
96 136 2
97 98 4
97 137 2
98 99 1
98 138 3
99 100 2
99 139 1
100 101 5
100 140 1
101 102 4
101 141 4
102 103 2
102 142 3
103 104 4
103 143 4
104 105 4
104 144 4
105 106 3
105 145 1
106 107 1
106 146 5
107 108 5
107 147 4
108 109 3
108 148 2
109 110 2
109 149 1
110 111 4
110 150 1
111 112 3
111 151 1
112 113 4
112 152 1
113 114 3
113 153 1
114 115 4
114 154 2
115 116 5
115 155 1
116 117 4
116 156 3
117 118 5
117 157 1
118 119 3
118 158 5
119 120 3
119 159 2
120 160 1
121 122 3
121 161 3
122 123 5
122 162 3
123 124 3
123 163 1
124 125 4
124 164 2
125 126 5
125 165 4
126 127 4
126 166 4
127 128 2
127 167 5
128 129 4
128 168 4
129 130 2
129 169 3
130 131 5
130 170 1
131 132 2
131 171 4
132 133 4
132 172 4
133 134 2
133 173 3
134 135 1
134 174 5
135 136 2
135 175 3
136 137 5
136 176 5
137 138 4
137 177 2
138 139 5
138 178 1
139 140 3
139 179 5
140 141 5
140 180 1
141 142 3
141 181 4
142 143 3
142 182 3
143 144 4
143 183 5
144 145 5
144 184 2
145 146 4
145 185 4
146 147 3
146 186 3
147 148 2
147 187 1
148 149 5
148 188 5
149 150 2
149 189 3
150 151 1
150 190 1
151 152 2
151 191 5
152 153 3
152 192 4
153 154 5
153 193 1
154 155 1
154 194 1
155 156 2
155 195 3
156 157 2
156 196 1
157 158 3
157 197 5
158 159 3
158 198 3
159 160 4
159 199 3
160 200 2
161 162 5
161 201 3
162 163 3
162 202 2
163 164 2
163 203 3
164 165 5
164 204 2
165 166 2
165 205 4
166 167 3
166 206 2
167 168 5
167 207 2
168 169 3
168 208 5
169 170 2
169 209 2
170 171 3
170 210 3
171 172 5
171 211 4
172 173 2
172 212 2
173 174 4
173 213 5
174 175 3
174 214 1
175 176 1
175 215 3
176 177 1
176 216 2
177 178 4
177 217 1
178 179 4
178 218 3
179 180 1
179 219 3
180 181 4
180 220 4
181 182 4
181 221 2
182 183 1
182 222 5
183 184 4
183 223 5
184 185 4
184 224 1
185 186 4
185 225 4
186 187 3
186 226 5
187 188 3
187 227 4
188 189 2
188 228 2
189 190 2
189 229 2
190 191 1
190 230 4
191 192 4
191 231 3
192 193 4
192 232 1
193 194 2
193 233 4
194 195 3
194 234 1
195 196 3
195 235 5
196 197 5
196 236 4
197 198 5
197 237 5
198 199 2
198 238 3
199 200 1
199 239 4
200 240 3
201 202 3
201 241 4
202 203 2
202 242 4
203 204 5
203 243 4
204 205 4
204 244 3
205 206 2
205 245 5
206 207 5
206 246 3
207 208 1
207 247 1
208 209 5
208 248 2
209 210 5
209 249 3
210 211 1
210 250 5
211 212 5
211 251 4
212 213 4
212 252 5
213 214 4
213 253 5
214 215 1
214 254 4
215 216 5
215 255 4
216 217 1
216 256 2
217 218 3
217 257 3
218 219 5
218 258 4
219 220 5
219 259 3
220 221 5
220 260 2
221 222 4
221 261 4
222 223 2
222 262 5
223 224 5
223 263 1
224 225 4
224 264 4
225 226 4
225 265 5
226 227 2
226 266 4
227 228 4
227 267 5
228 229 4
228 268 5
229 230 2
229 269 5
230 231 4
230 270 1
231 232 5
231 271 2
232 233 2
232 272 1
233 234 2
233 273 1
234 235 4
234 274 1
235 236 5
235 275 2
236 237 5
236 276 5
237 238 3
237 277 2
238 239 3
238 278 2
239 240 2
239 279 5
240 280 1
241 242 4
241 281 1
242 243 1
242 282 4
243 244 2
243 283 5
244 245 5
244 284 4
245 246 4
245 285 2
246 247 5
246 286 3
247 248 3
247 287 2
248 249 3
248 288 4
249 250 3
249 289 2
250 251 2
250 290 4
251 252 4
251 291 1
252 253 1
252 292 2
253 254 5
253 293 3
254 255 3
254 294 4
255 256 1
255 295 1
256 257 4
256 296 4
257 258 1
257 297 5
258 259 3
258 298 3
259 260 5
259 299 4
260 261 2
260 300 4
261 262 3
261 301 3
262 263 2
262 302 2
263 264 2
263 303 4
264 265 5
264 304 3
265 266 4
265 305 5
266 267 4
266 306 1
267 268 1
267 307 5
268 269 4
268 308 2
269 270 2
269 309 2
270 271 1
270 310 3
271 272 1
271 311 5
272 273 4
272 312 5
273 274 4
273 313 1
274 275 1
274 314 5
275 276 4
275 315 5
276 277 3
276 316 4
277 278 2
277 317 2
278 279 2
278 318 3
279 280 1
279 319 3
280 320 3
281 282 4
281 321 3
282 283 5
282 322 3
283 284 2
283 323 5
284 285 1
284 324 1
285 286 3
285 325 1
286 287 3
286 326 5
287 288 3
287 327 2
288 289 2
288 328 5
289 290 5
289 329 5
290 291 3
290 330 1
291 292 5
291 331 2
292 293 2
292 332 5
293 294 1
293 333 5
294 295 2
294 334 1
295 296 1
295 335 4
296 297 3
296 336 3
297 298 5
297 337 4
298 299 3
298 338 2
299 300 2
299 339 4
300 301 5
300 340 4
301 302 1
301 341 3
302 303 1
302 342 5
303 304 4
303 343 5
304 305 1
304 344 3
305 306 4
305 345 4
306 307 1
306 346 3
307 308 5
307 347 5
308 309 1
308 348 2
309 310 3
309 349 5
310 311 2
310 350 3
311 312 1
311 351 2
312 313 1
312 352 5
313 314 1
313 353 3
314 315 1
314 354 3
315 316 1
315 355 3
316 317 4
316 356 2
317 318 1
317 357 5
318 319 3
318 358 4
319 320 5
319 359 2
320 360 5
321 322 5
321 361 3
322 323 1
322 362 3
323 324 2
323 363 5
324 325 2
324 364 4
325 326 2
325 365 1
326 327 1
326 366 3
327 328 1
327 367 4
328 329 5
328 368 4
329 330 2
329 369 3
330 331 3
330 370 4
331 332 4
331 371 1
332 333 1
332 372 3
333 334 3
333 373 5
334 335 2
334 374 5
335 336 1
335 375 5
336 337 1
336 376 1
337 338 5
337 377 5
338 339 5
338 378 1
339 340 4
339 379 3
340 341 3
340 380 3
341 342 1
341 381 1
342 343 1
342 382 4
343 344 4
343 383 5
344 345 3
344 384 2
345 346 1
345 385 2
346 347 2
346 386 4
347 348 4
347 387 5
348 349 3
348 388 5
349 350 1
349 389 5
350 351 5
350 390 4
351 352 1
351 391 1
352 353 5
352 392 3
353 354 5
353 393 5
354 355 2
354 394 3
355 356 3
355 395 1
356 357 3
356 396 3
357 358 3
357 397 2
358 359 5
358 398 3
359 360 5
359 399 2
360 400 4
361 362 3
361 401 5
362 363 2
362 402 4
363 364 2
363 403 5
364 365 4
364 404 5
365 366 4
365 405 2
366 367 3
366 406 5
367 368 5
367 407 1
368 369 1
368 408 2
369 370 3
369 409 5
370 371 1
370 410 5
371 372 5
371 411 1
372 373 4
372 412 4
373 374 5
373 413 2
374 375 2
374 414 2
375 376 5
375 415 1
376 377 5
376 416 4
377 378 5
377 417 2
378 379 2
378 418 3
379 380 5
379 419 3
380 381 2
380 420 2
381 382 5
381 421 3
382 383 2
382 422 2
383 384 5
383 423 5
384 385 3
384 424 5
385 386 2
385 425 3
386 387 2
386 426 4
387 388 4
387 427 1
388 389 4
388 428 3
389 390 1
389 429 4
390 391 4
390 430 3
391 392 5
391 431 5
392 393 2
392 432 5
393 394 5
393 433 5
394 395 4
394 434 2
395 396 4
395 435 3
396 397 1
396 436 1
397 398 2
397 437 3
398 399 3
398 438 5
399 400 4
399 439 4
400 440 2
401 402 4
401 441 5
402 403 3
402 442 2
403 404 5
403 443 5
404 405 1
404 444 5
405 406 1
405 445 2
406 407 5
406 446 5
407 408 1
407 447 4
408 409 1
408 448 3
409 410 5
409 449 5
410 411 1
410 450 2
411 412 4
411 451 5
412 413 4
412 452 5
413 414 2
413 453 5
414 415 3
414 454 1
415 416 1
415 455 2
416 417 3
416 456 4
417 418 4
417 457 2
418 419 3
418 458 4
419 420 5
419 459 5
420 421 2
420 460 5
421 422 1
421 461 4
422 423 5
422 462 2
423 424 1
423 463 1
424 425 5
424 464 4
425 426 4
425 465 5
426 427 2
426 466 4
427 428 3
427 467 4
428 429 1
428 468 2
429 430 4
429 469 5
430 431 5
430 470 1
431 432 5
431 471 2
432 433 2
432 472 3
433 434 3
433 473 1
434 435 4
434 474 5
435 436 1
435 475 1
436 437 5
436 476 1
437 438 4
437 477 2
438 439 3
438 478 2
439 440 5
439 479 3
440 480 1
441 442 5
441 481 4
442 443 4
442 482 3
443 444 4
443 483 2
444 445 2
444 484 5
445 446 2
445 485 2
446 447 3
446 486 3
447 448 4
447 487 3
448 449 2
448 488 3
449 450 1
449 489 2
450 451 2
450 490 3
451 452 2
451 491 4
452 453 3
452 492 2
453 454 3
453 493 4
454 455 4
454 494 3
455 456 2
455 495 1
456 457 1
456 496 2
457 458 5
457 497 3
458 459 3
458 498 1
459 460 2
459 499 5
460 461 1
460 500 1
461 462 2
461 501 1
462 463 2
462 502 4
463 464 1
463 503 3
464 465 1
464 504 4
465 466 4
465 505 2
466 467 4
466 506 3
467 468 1
467 507 5
468 469 4
468 508 4
469 470 2
469 509 5
470 471 3
470 510 1
471 472 4
471 511 2
472 473 3
472 512 4
473 474 4
473 513 2
474 475 1
474 514 5
475 476 2
475 515 2
476 477 2
476 516 4
477 478 2
477 517 2
478 479 3
478 518 1
479 480 5
479 519 2
480 520 1
481 482 5
481 521 4
482 483 3
482 522 5
483 484 4
483 523 1
484 485 3
484 524 1
485 486 3
485 525 3
486 487 2
486 526 2
487 488 3
487 527 4
488 489 2
488 528 2
489 490 2
489 529 1
490 491 1
490 530 4
491 492 1
491 531 5
492 493 3
492 532 2
493 494 1
493 533 5
494 495 2
494 534 2
495 496 5
495 535 3
496 497 1
496 536 3
497 498 5
497 537 4
498 499 5
498 538 2
499 500 4
499 539 4
500 501 4
500 540 2
501 502 2
501 541 1
502 503 4
502 542 3
503 504 5
503 543 5
504 505 4
504 544 1
505 506 4
505 545 4
506 507 2
506 546 1
507 508 4
507 547 1
508 509 3
508 548 4
509 510 3
509 549 1
510 511 1
510 550 3
511 512 2
511 551 1
512 513 2
512 552 3
513 514 4
513 553 1
514 515 4
514 554 4
515 516 3
515 555 4
516 517 5
516 556 2
517 518 1
517 557 5
518 519 3
518 558 2
519 520 5
519 559 4
520 560 3
521 522 1
521 561 1
522 523 3
522 562 5
523 524 5
523 563 4
524 525 4
524 564 5
525 526 5
525 565 2
526 527 5
526 566 5
527 528 4
527 567 5
528 529 3
528 568 5
529 530 2
529 569 4
530 531 3
530 570 5
531 532 2
531 571 4
532 533 2
532 572 5
533 534 5
533 573 5
534 535 1
534 574 5
535 536 1
535 575 1
536 537 5
536 576 1
537 538 2
537 577 4
538 539 5
538 578 4
539 540 2
539 579 4
540 541 2
540 580 3
541 542 5
541 581 1
542 543 4
542 582 4
543 544 4
543 583 3
544 545 5
544 584 2
545 546 4
545 585 2
546 547 5
546 586 2
547 548 4
547 587 4
548 549 2
548 588 2
549 550 5
549 589 1
550 551 4
550 590 4
551 552 3
551 591 3
552 553 4
552 592 2
553 554 3
553 593 5
554 555 2
554 594 3
555 556 2
555 595 4
556 557 1
556 596 4
557 558 3
557 597 1
558 559 4
558 598 1
559 560 2
559 599 4
560 600 4
561 562 1
561 601 5
562 563 3
562 602 3
563 564 2
563 603 2
564 565 2
564 604 3
565 566 3
565 605 3
566 567 5
566 606 3
567 568 1
567 607 3
568 569 4
568 608 4
569 570 4
569 609 5
570 571 3
570 610 3
571 572 2
571 611 2
572 573 4
572 612 3
573 574 5
573 613 3
574 575 1
574 614 1
575 576 3
575 615 4
576 577 1
576 616 2
577 578 3
577 617 4
578 579 4
578 618 2
579 580 2
579 619 4
580 581 5
580 620 1
581 582 1
581 621 1
582 583 2
582 622 5
583 584 1
583 623 3
584 585 5
584 624 2
585 586 5
585 625 5
586 587 1
586 626 2
587 588 5
587 627 5
588 589 3
588 628 2
589 590 2
589 629 2
590 591 3
590 630 5
591 592 5
591 631 3
592 593 1
592 632 2
593 594 4
593 633 5
594 595 2
594 634 4
595 596 1
595 635 1
596 597 4
596 636 2
597 598 5
597 637 5
598 599 4
598 638 4
599 600 5
599 639 1
600 640 4
601 602 1
601 641 2
602 603 1
602 642 3
603 604 1
603 643 4
604 605 5
604 644 1
605 606 3
605 645 3
606 607 3
606 646 5
607 608 5
607 647 5
608 609 1
608 648 2
609 610 3
609 649 4
610 611 3
610 650 4
611 612 2
611 651 5
612 613 4
612 652 5
613 614 3
613 653 5
614 615 2
614 654 4
615 616 5
615 655 3
616 617 4
616 656 2
617 618 3
617 657 1
618 619 3
618 658 4
619 620 1
619 659 5
620 621 4
620 660 2
621 622 1
621 661 3
622 623 4
622 662 1
623 624 5
623 663 4
624 625 4
624 664 2
625 626 1
625 665 1
626 627 3
626 666 4
627 628 1
627 667 1
628 629 2
628 668 1
629 630 5
629 669 5
630 631 1
630 670 1
631 632 4
631 671 1
632 633 4
632 672 1
633 634 4
633 673 5
634 635 2
634 674 5
635 636 3
635 675 1
636 637 3
636 676 4
637 638 1
637 677 5
638 639 1
638 678 5
639 640 1
639 679 1
640 680 3
641 642 4
641 681 4
642 643 3
642 682 1
643 644 4
643 683 3
644 645 2
644 684 2
645 646 3
645 685 1
646 647 5
646 686 3
647 648 1
647 687 1
648 649 4
648 688 1
649 650 1
649 689 5
650 651 1
650 690 1
651 652 1
651 691 1
652 653 5
652 692 3
653 654 4
653 693 3
654 655 3
654 694 5
655 656 1
655 695 3
656 657 4
656 696 1
657 658 2
657 697 4
658 659 3
658 698 4
659 660 5
659 699 2
660 661 5
660 700 1
661 662 4
661 701 2
662 663 5
662 702 4
663 664 4
663 703 2
664 665 2
664 704 1
665 666 5
665 705 3
666 667 3
666 706 1
667 668 2
667 707 3
668 669 5
668 708 4
669 670 1
669 709 4
670 671 1
670 710 4
671 672 4
671 711 1
672 673 2
672 712 5
673 674 2
673 713 4
674 675 5
674 714 3
675 676 2
675 715 5
676 677 4
676 716 5
677 678 4
677 717 4
678 679 2
678 718 2
679 680 5
679 719 3
680 720 3
681 682 5
681 721 1
682 683 2
682 722 4
683 684 3
683 723 5
684 685 4
684 724 1
685 686 1
685 725 5
686 687 2
686 726 5
687 688 4
687 727 5
688 689 5
688 728 5
689 690 4
689 729 5
690 691 2
690 730 1
691 692 2
691 731 1
692 693 2
692 732 1
693 694 5
693 733 5
694 695 3
694 734 3
695 696 2
695 735 5
696 697 4
696 736 4
697 698 4
697 737 5
698 699 3
698 738 5
699 700 5
699 739 3
700 701 3
700 740 2
701 702 5
701 741 3
702 703 2
702 742 3
703 704 5
703 743 1
704 705 2
704 744 5
705 706 3
705 745 5
706 707 3
706 746 5
707 708 5
707 747 3
708 709 5
708 748 1
709 710 4
709 749 3
710 711 2
710 750 5
711 712 3
711 751 2
712 713 2
712 752 4
713 714 2
713 753 5
714 715 1
714 754 1
715 716 2
715 755 1
716 717 4
716 756 4
717 718 4
717 757 5
718 719 5
718 758 1
719 720 5
719 759 5
720 760 3
721 722 2
721 761 4
722 723 4
722 762 3
723 724 4
723 763 3
724 725 3
724 764 2
725 726 5
725 765 4
726 727 4
726 766 2
727 728 1
727 767 5
728 729 1
728 768 4
729 730 5
729 769 1
730 731 1
730 770 2
731 732 3
731 771 2
732 733 3
732 772 4
733 734 2
733 773 4
734 735 5
734 774 4
735 736 2
735 775 2
736 737 4
736 776 4
737 738 2
737 777 5
738 739 1
738 778 3
739 740 5
739 779 5
740 741 1
740 780 5
741 742 4
741 781 1
742 743 4
742 782 1
743 744 1
743 783 2
744 745 4
744 784 3
745 746 3
745 785 3
746 747 4
746 786 5
747 748 5
747 787 3
748 749 1
748 788 2
749 750 4
749 789 3
750 751 2
750 790 5
751 752 3
751 791 4
752 753 1
752 792 1
753 754 3
753 793 1
754 755 5
754 794 5
755 756 1
755 795 1
756 757 3
756 796 2
757 758 3
757 797 3
758 759 2
758 798 1
759 760 4
759 799 1
760 800 5
761 762 3
761 801 4
762 763 4
762 802 1
763 764 4
763 803 1
764 765 2
764 804 1
765 766 4
765 805 2
766 767 5
766 806 2
767 768 5
767 807 5
768 769 3
768 808 4
769 770 2
769 809 3
770 771 1
770 810 3
771 772 4
771 811 1
772 773 2
772 812 1
773 774 1
773 813 2
774 775 3
774 814 3
775 776 4
775 815 2
776 777 5
776 816 1
777 778 3
777 817 4
778 779 5
778 818 3
779 780 3
779 819 3
780 781 2
780 820 3
781 782 5
781 821 2
782 783 4
782 822 3
783 784 5
783 823 2
784 785 5
784 824 1
785 786 3
785 825 5
786 787 2
786 826 5
787 788 4
787 827 5
788 789 2
788 828 1
789 790 1
789 829 3
790 791 1
790 830 5
791 792 2
791 831 2
792 793 5
792 832 5
793 794 1
793 833 3
794 795 1
794 834 5
795 796 4
795 835 2
796 797 5
796 836 4
797 798 5
797 837 1
798 799 2
798 838 2
799 800 5
799 839 3
800 840 2
801 802 2
801 841 2
802 803 2
802 842 1
803 804 2
803 843 4
804 805 3
804 844 2
805 806 1
805 845 4
806 807 1
806 846 4
807 808 5
807 847 3
808 809 4
808 848 1
809 810 5
809 849 4
810 811 2
810 850 4
811 812 4
811 851 4
812 813 5
812 852 5
813 814 2
813 853 1
814 815 4
814 854 1
815 816 3
815 855 5
816 817 2
816 856 5
817 818 2
817 857 3
818 819 3
818 858 3
819 820 3
819 859 4
820 821 5
820 860 1
821 822 2
821 861 2
822 823 1
822 862 2
823 824 2
823 863 3
824 825 2
824 864 1
825 826 1
825 865 1
826 827 4
826 866 3
827 828 2
827 867 4
828 829 3
828 868 3
829 830 1
829 869 4
830 831 5
830 870 4
831 832 5
831 871 4
832 833 1
832 872 3
833 834 5
833 873 1
834 835 2
834 874 1
835 836 4
835 875 1
836 837 2
836 876 3
837 838 4
837 877 5
838 839 5
838 878 5
839 840 5
839 879 4
840 880 5
841 842 4
841 881 1
842 843 5
842 882 1
843 844 1
843 883 4
844 845 4
844 884 2
845 846 1
845 885 2
846 847 4
846 886 1
847 848 2
847 887 5
848 849 2
848 888 3
849 850 3
849 889 2
850 851 3
850 890 2
851 852 1
851 891 4
852 853 2
852 892 3
853 854 4
853 893 5
854 855 3
854 894 3
855 856 5
855 895 1
856 857 5
856 896 3
857 858 4
857 897 1
858 859 1
858 898 3
859 860 1
859 899 1
860 861 3
860 900 1
861 862 2
861 901 5
862 863 1
862 902 5
863 864 2
863 903 1
864 865 5
864 904 1
865 866 5
865 905 3
866 867 5
866 906 4
867 868 2
867 907 1
868 869 1
868 908 5
869 870 1
869 909 5
870 871 4
870 910 4
871 872 2
871 911 1
872 873 1
872 912 5
873 874 2
873 913 1
874 875 3
874 914 4
875 876 1
875 915 1
876 877 4
876 916 1
877 878 1
877 917 5
878 879 3
878 918 1
879 880 5
879 919 1
880 920 2
881 882 3
881 921 2
882 883 3
882 922 4
883 884 2
883 923 2
884 885 1
884 924 4
885 886 5
885 925 3
886 887 2
886 926 2
887 888 2
887 927 3
888 889 5
888 928 5
889 890 2
889 929 5
890 891 3
890 930 1
891 892 3
891 931 1
892 893 2
892 932 5
893 894 1
893 933 3
894 895 2
894 934 5
895 896 5
895 935 2
896 897 3
896 936 2
897 898 5
897 937 1
898 899 2
898 938 5
899 900 4
899 939 1
900 901 2
900 940 3
901 902 1
901 941 1
902 903 3
902 942 5
903 904 2
903 943 4
904 905 3
904 944 4
905 906 4
905 945 5
906 907 4
906 946 1
907 908 5
907 947 4
908 909 3
908 948 5
909 910 4
909 949 4
910 911 5
910 950 2
911 912 5
911 951 3
912 913 5
912 952 2
913 914 4
913 953 4
914 915 5
914 954 3
915 916 1
915 955 5
916 917 1
916 956 4
917 918 1
917 957 1
918 919 2
918 958 4
919 920 2
919 959 4
920 960 3
921 922 5
921 961 4
922 923 5
922 962 4
923 924 3
923 963 1
924 925 4
924 964 1
925 926 3
925 965 3
926 927 5
926 966 5
927 928 1
927 967 5
928 929 4
928 968 5
929 930 5
929 969 4
930 931 2
930 970 1
931 932 3
931 971 4
932 933 5
932 972 3
933 934 2
933 973 4
934 935 3
934 974 2
935 936 5
935 975 3
936 937 2
936 976 3
937 938 5
937 977 4
938 939 5
938 978 5
939 940 3
939 979 1
940 941 2
940 980 3
941 942 4
941 981 4
942 943 4
942 982 1
943 944 1
943 983 2
944 945 5
944 984 1
945 946 4
945 985 5
946 947 3
946 986 4
947 948 1
947 987 2
948 949 2
948 988 5
949 950 2
949 989 3
950 951 2
950 990 5
951 952 5
951 991 4
952 953 3
952 992 2
953 954 5
953 993 4
954 955 1
954 994 5
955 956 2
955 995 4
956 957 3
956 996 5
957 958 5
957 997 1
958 959 1
958 998 4
959 960 2
959 999 4
960 1000 3
961 962 2
961 1001 2
962 963 5
962 1002 2
963 964 4
963 1003 1
964 965 5
964 1004 1
965 966 2
965 1005 4
966 967 2
966 1006 2
967 968 4
967 1007 2
968 969 1
968 1008 1
969 970 4
969 1009 2
970 971 4
970 1010 5
971 972 5
971 1011 5
972 973 5
972 1012 3
973 974 1
973 1013 1
974 975 3
974 1014 2
975 976 1
975 1015 5
976 977 4
976 1016 5
977 978 2
977 1017 1
978 979 4
978 1018 4
979 980 3
979 1019 4
980 981 4
980 1020 1
981 982 5
981 1021 1
982 983 4
982 1022 3
983 984 3
983 1023 1
984 985 1
984 1024 3
985 986 3
985 1025 1
986 987 3
986 1026 5
987 988 3
987 1027 5
988 989 1
988 1028 4
989 990 4
989 1029 1
990 991 4
990 1030 2
991 992 1
991 1031 2
992 993 4
992 1032 1
993 994 3
993 1033 5
994 995 2
994 1034 1
995 996 3
995 1035 2
996 997 1
996 1036 1
997 998 4
997 1037 5
998 999 1
998 1038 4
999 1000 5
999 1039 2
1000 1040 1
1001 1002 4
1001 1041 2
1002 1003 1
1002 1042 3
1003 1004 3
1003 1043 5
1004 1005 4
1004 1044 1
1005 1006 1
1005 1045 2
1006 1007 4
1006 1046 2
1007 1008 1
1007 1047 2
1008 1009 1
1008 1048 3
1009 1010 2
1009 1049 5
1010 1011 4
1010 1050 3
1011 1012 4
1011 1051 1
1012 1013 1
1012 1052 5
1013 1014 5
1013 1053 1
1014 1015 3
1014 1054 3
1015 1016 5
1015 1055 4
1016 1017 1
1016 1056 1
1017 1018 3
1017 1057 5
1018 1019 5
1018 1058 5
1019 1020 5
1019 1059 1
1020 1021 1
1020 1060 2
1021 1022 1
1021 1061 3
1022 1023 5
1022 1062 2
1023 1024 5
1023 1063 5
1024 1025 5
1024 1064 2
1025 1026 1
1025 1065 5
1026 1027 3
1026 1066 2
1027 1028 5
1027 1067 2
1028 1029 5
1028 1068 4
1029 1030 4
1029 1069 4
1030 1031 5
1030 1070 4
1031 1032 1
1031 1071 5
1032 1033 2
1032 1072 3
1033 1034 3
1033 1073 3
1034 1035 2
1034 1074 3
1035 1036 1
1035 1075 3
1036 1037 3
1036 1076 2
1037 1038 2
1037 1077 2
1038 1039 3
1038 1078 5
1039 1040 5
1039 1079 4
1040 1080 5
1041 1042 2
1041 1081 2
1042 1043 5
1042 1082 1
1043 1044 3
1043 1083 1
1044 1045 5
1044 1084 2
1045 1046 4
1045 1085 4
1046 1047 3
1046 1086 2
1047 1048 3
1047 1087 5
1048 1049 3
1048 1088 3
1049 1050 1
1049 1089 4
1050 1051 3
1050 1090 5
1051 1052 3
1051 1091 3
1052 1053 5
1052 1092 5
1053 1054 3
1053 1093 1
1054 1055 2
1054 1094 3
1055 1056 3
1055 1095 5
1056 1057 1
1056 1096 3
1057 1058 3
1057 1097 5
1058 1059 2
1058 1098 3
1059 1060 1
1059 1099 4
1060 1061 1
1060 1100 4
1061 1062 1
1061 1101 5
1062 1063 5
1062 1102 5
1063 1064 4
1063 1103 3
1064 1065 3
1064 1104 1
1065 1066 5
1065 1105 1
1066 1067 3
1066 1106 2
1067 1068 1
1067 1107 3
1068 1069 3
1068 1108 3
1069 1070 5
1069 1109 3
1070 1071 3
1070 1110 1
1071 1072 4
1071 1111 2
1072 1073 3
1072 1112 5
1073 1074 4
1073 1113 1
1074 1075 2
1074 1114 4
1075 1076 3
1075 1115 3
1076 1077 4
1076 1116 3
1077 1078 1
1077 1117 3
1078 1079 1
1078 1118 3
1079 1080 3
1079 1119 3
1080 1120 2
1081 1082 5
1081 1121 4
1082 1083 1
1082 1122 5
1083 1084 4
1083 1123 5
1084 1085 5
1084 1124 2
1085 1086 1
1085 1125 4
1086 1087 5
1086 1126 5
1087 1088 1
1087 1127 1
1088 1089 2
1088 1128 1
1089 1090 2
1089 1129 5
1090 1091 3
1090 1130 2
1091 1092 1
1091 1131 2
1092 1093 5
1092 1132 2
1093 1094 2
1093 1133 5
1094 1095 4
1094 1134 4
1095 1096 3
1095 1135 2
1096 1097 2
1096 1136 2
1097 1098 2
1097 1137 3
1098 1099 1
1098 1138 5
1099 1100 2
1099 1139 1
1100 1101 5
1100 1140 4
1101 1102 1
1101 1141 1
1102 1103 4
1102 1142 4
1103 1104 5
1103 1143 4
1104 1105 1
1104 1144 1
1105 1106 2
1105 1145 2
1106 1107 2
1106 1146 3
1107 1108 5
1107 1147 1
1108 1109 3
1108 1148 2
1109 1110 4
1109 1149 3
1110 1111 2
1110 1150 3
1111 1112 5
1111 1151 4
1112 1113 5
1112 1152 3
1113 1114 3
1113 1153 3
1114 1115 4
1114 1154 4
1115 1116 1
1115 1155 2
1116 1117 4
1116 1156 5
1117 1118 4
1117 1157 2
1118 1119 1
1118 1158 3
1119 1120 4
1119 1159 1
1120 1160 3
1121 1122 5
1121 1161 2
1122 1123 1
1122 1162 1
1123 1124 1
1123 1163 1
1124 1125 2
1124 1164 5
1125 1126 4
1125 1165 4
1126 1127 1
1126 1166 3
1127 1128 1
1127 1167 5
1128 1129 5
1128 1168 4
1129 1130 4
1129 1169 2
1130 1131 1
1130 1170 1
1131 1132 5
1131 1171 3
1132 1133 4
1132 1172 4
1133 1134 2
1133 1173 1
1134 1135 3
1134 1174 2
1135 1136 4
1135 1175 5
1136 1137 3
1136 1176 2
1137 1138 3
1137 1177 5
1138 1139 1
1138 1178 5
1139 1140 4
1139 1179 1
1140 1141 5
1140 1180 1
1141 1142 4
1141 1181 5
1142 1143 4
1142 1182 3
1143 1144 4
1143 1183 4
1144 1145 4
1144 1184 4
1145 1146 2
1145 1185 1
1146 1147 2
1146 1186 5
1147 1148 5
1147 1187 1
1148 1149 1
1148 1188 4
1149 1150 4
1149 1189 3
1150 1151 3
1150 1190 3
1151 1152 2
1151 1191 2
1152 1153 3
1152 1192 5
1153 1154 5
1153 1193 4
1154 1155 3
1154 1194 4
1155 1156 5
1155 1195 2
1156 1157 1
1156 1196 5
1157 1158 1
1157 1197 5
1158 1159 4
1158 1198 4
1159 1160 3
1159 1199 1
1160 1200 3
1161 1162 3
1161 1201 5
1162 1163 2
1162 1202 2
1163 1164 2
1163 1203 2
1164 1165 2
1164 1204 2
1165 1166 2
1165 1205 1
1166 1167 1
1166 1206 1
1167 1168 4
1167 1207 5
1168 1169 4
1168 1208 5
1169 1170 2
1169 1209 2
1170 1171 3
1170 1210 4
1171 1172 4
1171 1211 4
1172 1173 5
1172 1212 5
1173 1174 3
1173 1213 1
1174 1175 3
1174 1214 3
1175 1176 2
1175 1215 1
1176 1177 4
1176 1216 3
1177 1178 4
1177 1217 3
1178 1179 3
1178 1218 3
1179 1180 5
1179 1219 1
1180 1181 3
1180 1220 2
1181 1182 3
1181 1221 1
1182 1183 2
1182 1222 4
1183 1184 3
1183 1223 5
1184 1185 1
1184 1224 2
1185 1186 1
1185 1225 5
1186 1187 2
1186 1226 4
1187 1188 4
1187 1227 4
1188 1189 1
1188 1228 1
1189 1190 3
1189 1229 2
1190 1191 4
1190 1230 5
1191 1192 5
1191 1231 2
1192 1193 5
1192 1232 1
1193 1194 5
1193 1233 1
1194 1195 1
1194 1234 3
1195 1196 5
1195 1235 5
1196 1197 3
1196 1236 1
1197 1198 2
1197 1237 2
1198 1199 5
1198 1238 1
1199 1200 3
1199 1239 1
1200 1240 3
1201 1202 4
1201 1241 1
1202 1203 4
1202 1242 4
1203 1204 3
1203 1243 4
1204 1205 3
1204 1244 4
1205 1206 5
1205 1245 4
1206 1207 2
1206 1246 5
1207 1208 3
1207 1247 2
1208 1209 1
1208 1248 4
1209 1210 1
1209 1249 5
1210 1211 1
1210 1250 1
1211 1212 2
1211 1251 5
1212 1213 3
1212 1252 4
1213 1214 3
1213 1253 2
1214 1215 1
1214 1254 5
1215 1216 5
1215 1255 4
1216 1217 4
1216 1256 1
1217 1218 5
1217 1257 3
1218 1219 1
1218 1258 5
1219 1220 2
1219 1259 2
1220 1221 3
1220 1260 1
1221 1222 3
1221 1261 3
1222 1223 3
1222 1262 3
1223 1224 4
1223 1263 3
1224 1225 3
1224 1264 2
1225 1226 2
1225 1265 1
1226 1227 3
1226 1266 3
1227 1228 2
1227 1267 5
1228 1229 3
1228 1268 3
1229 1230 4
1229 1269 1
1230 1231 3
1230 1270 5
1231 1232 3
1231 1271 5
1232 1233 4
1232 1272 5
1233 1234 2
1233 1273 4
1234 1235 2
1234 1274 2
1235 1236 5
1235 1275 5
1236 1237 5
1236 1276 2
1237 1238 5
1237 1277 1
1238 1239 4
1238 1278 3
1239 1240 2
1239 1279 3
1240 1280 4
1241 1242 3
1241 1281 1
1242 1243 2
1242 1282 4
1243 1244 5
1243 1283 3
1244 1245 3
1244 1284 2
1245 1246 3
1245 1285 4
1246 1247 5
1246 1286 4
1247 1248 2
1247 1287 2
1248 1249 2
1248 1288 2
1249 1250 2
1249 1289 5
1250 1251 2
1250 1290 3
1251 1252 5
1251 1291 5
1252 1253 4
1252 1292 4
1253 1254 2
1253 1293 1
1254 1255 3
1254 1294 4
1255 1256 2
1255 1295 5
1256 1257 3
1256 1296 5
1257 1258 3
1257 1297 5
1258 1259 3
1258 1298 1
1259 1260 2
1259 1299 5
1260 1261 2
1260 1300 2
1261 1262 2
1261 1301 5
1262 1263 4
1262 1302 4
1263 1264 2
1263 1303 4
1264 1265 5
1264 1304 5
1265 1266 4
1265 1305 5
1266 1267 2
1266 1306 1
1267 1268 5
1267 1307 2
1268 1269 1
1268 1308 1
1269 1270 5
1269 1309 1
1270 1271 1
1270 1310 3
1271 1272 1
1271 1311 3
1272 1273 5
1272 1312 4
1273 1274 4
1273 1313 1
1274 1275 2
1274 1314 4
1275 1276 2
1275 1315 5
1276 1277 1
1276 1316 1
1277 1278 2
1277 1317 1
1278 1279 5
1278 1318 3
1279 1280 5
1279 1319 3
1280 1320 4
1281 1282 2
1281 1321 1
1282 1283 5
1282 1322 5
1283 1284 4
1283 1323 1
1284 1285 5
1284 1324 4
1285 1286 4
1285 1325 5
1286 1287 1
1286 1326 5
1287 1288 5
1287 1327 1
1288 1289 3
1288 1328 2
1289 1290 5
1289 1329 1
1290 1291 3
1290 1330 4
1291 1292 5
1291 1331 2
1292 1293 4
1292 1332 5
1293 1294 2
1293 1333 5
1294 1295 5
1294 1334 2
1295 1296 1
1295 1335 1
1296 1297 1
1296 1336 3
1297 1298 2
1297 1337 5
1298 1299 3
1298 1338 2
1299 1300 4
1299 1339 4
1300 1301 1
1300 1340 1
1301 1302 4
1301 1341 3
1302 1303 1
1302 1342 3
1303 1304 5
1303 1343 4
1304 1305 4
1304 1344 3
1305 1306 1
1305 1345 2
1306 1307 4
1306 1346 4
1307 1308 1
1307 1347 1
1308 1309 3
1308 1348 4
1309 1310 3
1309 1349 1
1310 1311 3
1310 1350 1
1311 1312 4
1311 1351 5
1312 1313 5
1312 1352 3
1313 1314 1
1313 1353 3
1314 1315 5
1314 1354 2
1315 1316 3
1315 1355 4
1316 1317 3
1316 1356 1
1317 1318 3
1317 1357 4
1318 1319 4
1318 1358 3
1319 1320 3
1319 1359 3
1320 1360 2
1321 1322 4
1321 1361 5
1322 1323 2
1322 1362 1
1323 1324 3
1323 1363 1
1324 1325 3
1324 1364 5
1325 1326 4
1325 1365 5
1326 1327 1
1326 1366 1
1327 1328 4
1327 1367 1
1328 1329 5
1328 1368 2
1329 1330 1
1329 1369 1
1330 1331 5
1330 1370 4
1331 1332 5
1331 1371 4
1332 1333 1
1332 1372 2
1333 1334 1
1333 1373 1
1334 1335 1
1334 1374 5
1335 1336 1
1335 1375 4
1336 1337 2
1336 1376 2
1337 1338 1
1337 1377 3
1338 1339 2
1338 1378 1
1339 1340 5
1339 1379 3
1340 1341 1
1340 1380 4
1341 1342 4
1341 1381 1
1342 1343 3
1342 1382 2
1343 1344 3
1343 1383 4
1344 1345 2
1344 1384 2
1345 1346 3
1345 1385 4
1346 1347 2
1346 1386 2
1347 1348 4
1347 1387 3
1348 1349 5
1348 1388 1
1349 1350 1
1349 1389 5
1350 1351 2
1350 1390 1
1351 1352 5
1351 1391 3
1352 1353 4
1352 1392 1
1353 1354 1
1353 1393 1
1354 1355 1
1354 1394 3
1355 1356 5
1355 1395 3
1356 1357 5
1356 1396 5
1357 1358 2
1357 1397 1
1358 1359 2
1358 1398 3
1359 1360 5
1359 1399 4
1360 1400 2
1361 1362 2
1361 1401 2
1362 1363 5
1362 1402 5
1363 1364 2
1363 1403 2
1364 1365 2
1364 1404 2
1365 1366 3
1365 1405 4
1366 1367 3
1366 1406 2
1367 1368 5
1367 1407 1
1368 1369 5
1368 1408 2
1369 1370 1
1369 1409 5
1370 1371 5
1370 1410 3
1371 1372 3
1371 1411 4
1372 1373 4
1372 1412 2
1373 1374 2
1373 1413 3
1374 1375 1
1374 1414 4
1375 1376 1
1375 1415 4
1376 1377 4
1376 1416 5
1377 1378 3
1377 1417 5
1378 1379 4
1378 1418 3
1379 1380 3
1379 1419 2
1380 1381 1
1380 1420 3
1381 1382 2
1381 1421 5
1382 1383 4
1382 1422 1
1383 1384 4
1383 1423 5
1384 1385 3
1384 1424 1
1385 1386 4
1385 1425 2
1386 1387 1
1386 1426 3
1387 1388 5
1387 1427 3
1388 1389 4
1388 1428 3
1389 1390 1
1389 1429 4
1390 1391 3
1390 1430 5
1391 1392 4
1391 1431 2
1392 1393 2
1392 1432 2
1393 1394 3
1393 1433 1
1394 1395 4
1394 1434 1
1395 1396 2
1395 1435 2
1396 1397 4
1396 1436 2
1397 1398 3
1397 1437 4
1398 1399 4
1398 1438 2
1399 1400 4
1399 1439 5
1400 1440 4
1401 1402 2
1401 1441 1
1402 1403 5
1402 1442 2
1403 1404 1
1403 1443 4
1404 1405 4
1404 1444 3
1405 1406 2
1405 1445 2
1406 1407 5
1406 1446 2
1407 1408 4
1407 1447 5
1408 1409 1
1408 1448 2
1409 1410 4
1409 1449 1
1410 1411 2
1410 1450 1
1411 1412 5
1411 1451 4
1412 1413 1
1412 1452 5
1413 1414 1
1413 1453 2
1414 1415 5
1414 1454 1
1415 1416 2
1415 1455 5
1416 1417 4
1416 1456 5
1417 1418 4
1417 1457 2
1418 1419 1
1418 1458 1
1419 1420 2
1419 1459 3
1420 1421 2
1420 1460 2
1421 1422 2
1421 1461 4
1422 1423 4
1422 1462 3
1423 1424 4
1423 1463 4
1424 1425 4
1424 1464 5
1425 1426 3
1425 1465 4
1426 1427 4
1426 1466 2
1427 1428 2
1427 1467 4
1428 1429 5
1428 1468 2
1429 1430 5
1429 1469 2
1430 1431 2
1430 1470 4
1431 1432 4
1431 1471 4
1432 1433 3
1432 1472 1
1433 1434 1
1433 1473 5
1434 1435 3
1434 1474 2
1435 1436 3
1435 1475 2
1436 1437 4
1436 1476 4
1437 1438 3
1437 1477 5
1438 1439 1
1438 1478 4
1439 1440 1
1439 1479 5
1440 1480 4
1441 1442 4
1441 1481 4
1442 1443 5
1442 1482 3
1443 1444 5
1443 1483 4
1444 1445 2
1444 1484 2
1445 1446 3
1445 1485 2
1446 1447 3
1446 1486 4
1447 1448 3
1447 1487 5
1448 1449 4
1448 1488 2
1449 1450 5
1449 1489 5
1450 1451 1
1450 1490 2
1451 1452 3
1451 1491 1
1452 1453 1
1452 1492 4
1453 1454 5
1453 1493 5
1454 1455 1
1454 1494 2
1455 1456 5
1455 1495 2
1456 1457 4
1456 1496 1
1457 1458 5
1457 1497 2
1458 1459 5
1458 1498 4
1459 1460 5
1459 1499 4
1460 1461 5
1460 1500 2
1461 1462 2
1461 1501 1
1462 1463 1
1462 1502 1
1463 1464 2
1463 1503 3
1464 1465 1
1464 1504 4
1465 1466 4
1465 1505 3
1466 1467 5
1466 1506 2
1467 1468 2
1467 1507 1
1468 1469 1
1468 1508 1
1469 1470 4
1469 1509 4
1470 1471 3
1470 1510 4
1471 1472 1
1471 1511 4
1472 1473 2
1472 1512 2
1473 1474 2
1473 1513 5
1474 1475 4
1474 1514 1
1475 1476 5
1475 1515 3
1476 1477 3
1476 1516 3
1477 1478 5
1477 1517 4
1478 1479 5
1478 1518 3
1479 1480 4
1479 1519 1
1480 1520 2
1481 1482 1
1481 1521 3
1482 1483 2
1482 1522 1
1483 1484 5
1483 1523 3
1484 1485 1
1484 1524 4
1485 1486 4
1485 1525 5
1486 1487 2
1486 1526 3
1487 1488 2
1487 1527 4
1488 1489 4
1488 1528 1
1489 1490 2
1489 1529 2
1490 1491 1
1490 1530 1
1491 1492 3
1491 1531 3
1492 1493 4
1492 1532 4
1493 1494 5
1493 1533 1
1494 1495 4
1494 1534 2
1495 1496 3
1495 1535 3
1496 1497 5
1496 1536 3
1497 1498 3
1497 1537 5
1498 1499 3
1498 1538 1
1499 1500 3
1499 1539 4
1500 1501 4
1500 1540 4
1501 1502 4
1501 1541 5
1502 1503 3
1502 1542 4
1503 1504 5
1503 1543 2
1504 1505 1
1504 1544 5
1505 1506 3
1505 1545 3
1506 1507 3
1506 1546 5
1507 1508 4
1507 1547 4
1508 1509 4
1508 1548 1
1509 1510 4
1509 1549 3
1510 1511 4
1510 1550 5
1511 1512 2
1511 1551 5
1512 1513 5
1512 1552 3
1513 1514 2
1513 1553 3
1514 1515 4
1514 1554 4
1515 1516 2
1515 1555 3
1516 1517 2
1516 1556 5
1517 1518 1
1517 1557 4
1518 1519 2
1518 1558 3
1519 1520 3
1519 1559 5
1520 1560 1
1521 1522 4
1521 1561 2
1522 1523 4
1522 1562 4
1523 1524 1
1523 1563 1
1524 1525 5
1524 1564 5
1525 1526 2
1525 1565 5
1526 1527 4
1526 1566 2
1527 1528 5
1527 1567 4
1528 1529 5
1528 1568 1
1529 1530 2
1529 1569 4
1530 1531 5
1530 1570 3
1531 1532 3
1531 1571 1
1532 1533 5
1532 1572 3
1533 1534 1
1533 1573 3
1534 1535 2
1534 1574 1
1535 1536 4
1535 1575 4
1536 1537 3
1536 1576 2
1537 1538 3
1537 1577 5
1538 1539 2
1538 1578 4
1539 1540 4
1539 1579 2
1540 1541 4
1540 1580 1
1541 1542 1
1541 1581 4
1542 1543 4
1542 1582 5
1543 1544 3
1543 1583 5
1544 1545 3
1544 1584 4
1545 1546 5
1545 1585 2
1546 1547 2
1546 1586 1
1547 1548 1
1547 1587 4
1548 1549 5
1548 1588 3
1549 1550 1
1549 1589 2
1550 1551 5
1550 1590 5
1551 1552 1
1551 1591 4
1552 1553 1
1552 1592 1
1553 1554 5
1553 1593 3
1554 1555 1
1554 1594 4
1555 1556 4
1555 1595 5
1556 1557 4
1556 1596 5
1557 1558 5
1557 1597 1
1558 1559 1
1558 1598 5
1559 1560 5
1559 1599 2
1560 1600 3
1561 1562 2
1562 1563 1
1563 1564 4
1564 1565 4
1565 1566 2
1566 1567 3
1567 1568 3
1568 1569 1
1569 1570 1
1570 1571 2
1571 1572 3
1572 1573 2
1573 1574 4
1574 1575 2
1575 1576 4
1576 1577 3
1577 1578 4
1578 1579 2
1579 1580 2
1580 1581 5
1581 1582 3
1582 1583 1
1583 1584 5
1584 1585 1
1585 1586 1
1586 1587 5
1587 1588 5
1588 1589 3
1589 1590 4
1590 1591 1
1591 1592 3
1592 1593 3
1593 1594 3
1594 1595 1
1595 1596 5
1596 1597 1
1597 1598 4
1598 1599 4
1599 1600 4
1 1561 1
2 1562 1
3 1563 3
4 1564 3
5 1565 2
6 1566 2
7 1567 4
8 1568 3
9 1569 2
10 1570 4
11 1571 4
12 1572 5
13 1573 3
14 1574 2
15 1575 3
16 1576 3
17 1577 3
18 1578 5
19 1579 2
20 1580 5
21 1581 1
22 1582 5
23 1583 4
24 1584 5
25 1585 3
26 1586 4
27 1587 2
28 1588 5
29 1589 3
30 1590 3
31 1591 1
32 1592 5
33 1593 1
34 1594 1
35 1595 3
36 1596 1
37 1597 5
38 1598 5
39 1599 3
40 1600 2
1 40 3
41 80 3
81 120 1
121 160 1
161 200 2
201 240 3
241 280 1
281 320 2
321 360 1
361 400 3
401 440 5
441 480 4
481 520 2
521 560 2
561 600 1
601 640 4
641 680 2
681 720 5
721 760 3
761 800 5
801 840 4
841 880 5
881 920 3
921 960 1
961 1000 2
1001 1040 5
1041 1080 4
1081 1120 5
1121 1160 4
1161 1200 5
1201 1240 2
1241 1280 4
1281 1320 5
1321 1360 4
1361 1400 1
1401 1440 3
1441 1480 2
1481 1520 3
1521 1560 1
1561 1600 1
